140
1000000
187526
45200
79391
292367
87992
329313
210493
31661
261128
179376
10487
135668
332252
1584
231377
8802
457837
58623
496206
16244
32732
198046
80756
77884
14855
13056
188502
335387
208935
137796
135915
52252
134350
3990
182107
207902
408970
255075
406804
114044
2970
144695
136933
406495
468738
54880
42851
57371
289238
312181
103199
73539
343200
310783
118373
382087
214078
437262
377853
373946
116841
424348
222777
178314
64411
143755
372246
122837
283595
498188
294874
85204
411996
135131
132365
97772
332572
412991
92916
252054
86860
307409
152574
60631
183910
313846
192950
405622
77730
319188
391432
4950
275422
439573
420765
53888
32715
297640
220600
422402
110307
457107
192338
251121
20998
217534
65282
384566
394278
98469
76040
344123
164422
305322
350588
77433
294722
333009
134296
220006
111074
224859
210551
241149
188996
407763
238049
423951
52346
356254
113403
208232
422118
55
390575
188135
273491
269424
316758
242005
